formal/dcr/dcr/model/design_smt2.smt2
; SMT-LIBv2 description generated by Yosys 0.48+47 (git sha1 cbb95cb51, clang++ 18.1.8 -fPIC -O3)
; yosys-smt2-module dcr
(declare-sort |dcr_s| 0)
(declare-fun |dcr_is| (|dcr_s|) Bool)
; yosys-smt2-anyinit dcr#0 8 dcr.sv:39.5-51.8
; yosys-smt2-witness {"offset": 0, "path": ["\\device_control_register"], "smtname": 0, "smtoffset": 0, "type": "init", "width": 8}
(declare-fun |dcr#0| (|dcr_s|) (_ BitVec 8)) ; \device_control_register
; yosys-smt2-output thread_count 8
; yosys-smt2-wire thread_count 8
(define-fun |dcr_n thread_count| ((state |dcr_s|)) (_ BitVec 8) (|dcr#0| state))
(declare-fun |dcr#1| (|dcr_s|) Bool) ; \reset
; yosys-smt2-input reset 1
; yosys-smt2-wire reset 1
; yosys-smt2-witness {"offset": 0, "path": ["\\reset"], "smtname": "reset", "smtoffset": 0, "type": "input", "width": 1}
(define-fun |dcr_n reset| ((state |dcr_s|)) Bool (|dcr#1| state))
(declare-fun |dcr#2| (|dcr_s|) Bool) ; \device_control_write_enable
; yosys-smt2-input device_control_write_enable 1
; yosys-smt2-wire device_control_write_enable 1
; yosys-smt2-witness {"offset": 0, "path": ["\\device_control_write_enable"], "smtname": "device_control_write_enable", "smtoffset": 0, "type": "input", "width": 1}
(define-fun |dcr_n device_control_write_enable| ((state |dcr_s|)) Bool (|dcr#2| state))
; yosys-smt2-register device_control_register 8
; yosys-smt2-wire device_control_register 8
(define-fun |dcr_n device_control_register| ((state |dcr_s|)) (_ BitVec 8) (|dcr#0| state))
(declare-fun |dcr#3| (|dcr_s|) (_ BitVec 8)) ; \device_control_data
; yosys-smt2-input device_control_data 8
; yosys-smt2-wire device_control_data 8
; yosys-smt2-witness {"offset": 0, "path": ["\\device_control_data"], "smtname": "device_control_data", "smtoffset": 0, "type": "input", "width": 8}
(define-fun |dcr_n device_control_data| ((state |dcr_s|)) (_ BitVec 8) (|dcr#3| state))
(declare-fun |dcr#4| (|dcr_s|) Bool) ; \clk
; yosys-smt2-input clk 1
; yosys-smt2-wire clk 1
; yosys-smt2-clock clk posedge
; yosys-smt2-witness {"offset": 0, "path": ["\\clk"], "smtname": "clk", "smtoffset": 0, "type": "posedge", "width": 1}
; yosys-smt2-witness {"offset": 0, "path": ["\\clk"], "smtname": "clk", "smtoffset": 0, "type": "input", "width": 1}
(define-fun |dcr_n clk| ((state |dcr_s|)) Bool (|dcr#4| state))
(define-fun |dcr#5| ((state |dcr_s|)) (_ BitVec 1) (bvnot (ite (|dcr#4| state) #b1 #b0))) ; $auto$rtlil.cc:2739:Not$85
; yosys-smt2-assume 0 $auto$formalff.cc:758:execute$86
(define-fun |dcr_u 0| ((state |dcr_s|)) Bool (or (= ((_ extract 0 0) (|dcr#5| state)) #b1) (not true))) ; $auto$formalff.cc:758:execute$86
(define-fun |dcr#6| ((state |dcr_s|)) (_ BitVec 8) (ite (|dcr#2| state) (|dcr#3| state) (|dcr#0| state))) ; $procmux$16_Y
(define-fun |dcr#7| ((state |dcr_s|)) (_ BitVec 8) (ite (|dcr#1| state) #b00000000 (|dcr#6| state))) ; $0\device_control_register[7:0]
(define-fun |dcr_a| ((state |dcr_s|)) Bool true)
(define-fun |dcr_u| ((state |dcr_s|)) Bool 
  (|dcr_u 0| state)
)
(define-fun |dcr_i| ((state |dcr_s|)) Bool true)
(define-fun |dcr_h| ((state |dcr_s|)) Bool true)
(define-fun |dcr_t| ((state |dcr_s|) (next_state |dcr_s|)) Bool 
  (= (|dcr#7| state) (|dcr#0| next_state)) ; $procdff$33 \device_control_register
) ; end of module dcr
; yosys-smt2-module dcr_props
(declare-sort |dcr_props_s| 0)
(declare-fun |dcr_props_is| (|dcr_props_s|) Bool)
(declare-fun |dcr_props#0| (|dcr_props_s|) (_ BitVec 8)) ; \thread_count
; yosys-smt2-input thread_count 8
; yosys-smt2-wire thread_count 8
; yosys-smt2-witness {"offset": 0, "path": ["\\thread_count"], "smtname": "thread_count", "smtoffset": 0, "type": "input", "width": 8}
(define-fun |dcr_props_n thread_count| ((state |dcr_props_s|)) (_ BitVec 8) (|dcr_props#0| state))
(declare-fun |dcr_props#1| (|dcr_props_s|) Bool) ; \reset
; yosys-smt2-input reset 1
; yosys-smt2-wire reset 1
; yosys-smt2-witness {"offset": 0, "path": ["\\reset"], "smtname": "reset", "smtoffset": 0, "type": "input", "width": 1}
(define-fun |dcr_props_n reset| ((state |dcr_props_s|)) Bool (|dcr_props#1| state))
; yosys-smt2-witness {"offset": 0, "path": ["\\past_we"], "smtname": 2, "smtoffset": 0, "type": "reg", "width": 1}
(declare-fun |dcr_props#2| (|dcr_props_s|) (_ BitVec 1)) ; \past_we
; yosys-smt2-register past_we 1
; yosys-smt2-wire past_we 1
(define-fun |dcr_props_n past_we| ((state |dcr_props_s|)) Bool (= ((_ extract 0 0) (|dcr_props#2| state)) #b1))
; yosys-smt2-witness {"offset": 0, "path": ["\\past_valid"], "smtname": 3, "smtoffset": 0, "type": "reg", "width": 1}
(declare-fun |dcr_props#3| (|dcr_props_s|) (_ BitVec 1)) ; \past_valid
; yosys-smt2-register past_valid 1
; yosys-smt2-wire past_valid 1
(define-fun |dcr_props_n past_valid| ((state |dcr_props_s|)) Bool (= ((_ extract 0 0) (|dcr_props#3| state)) #b1))
; yosys-smt2-witness {"offset": 0, "path": ["\\past_thread_count"], "smtname": 4, "smtoffset": 0, "type": "reg", "width": 8}
(declare-fun |dcr_props#4| (|dcr_props_s|) (_ BitVec 8)) ; \past_thread_count
; yosys-smt2-register past_thread_count 8
; yosys-smt2-wire past_thread_count 8
(define-fun |dcr_props_n past_thread_count| ((state |dcr_props_s|)) (_ BitVec 8) (|dcr_props#4| state))
; yosys-smt2-witness {"offset": 0, "path": ["\\past_reset"], "smtname": 5, "smtoffset": 0, "type": "reg", "width": 1}
(declare-fun |dcr_props#5| (|dcr_props_s|) (_ BitVec 1)) ; \past_reset
; yosys-smt2-register past_reset 1
; yosys-smt2-wire past_reset 1
(define-fun |dcr_props_n past_reset| ((state |dcr_props_s|)) Bool (= ((_ extract 0 0) (|dcr_props#5| state)) #b1))
; yosys-smt2-witness {"offset": 0, "path": ["\\past_data"], "smtname": 6, "smtoffset": 0, "type": "reg", "width": 8}
(declare-fun |dcr_props#6| (|dcr_props_s|) (_ BitVec 8)) ; \past_data
; yosys-smt2-register past_data 8
; yosys-smt2-wire past_data 8
(define-fun |dcr_props_n past_data| ((state |dcr_props_s|)) (_ BitVec 8) (|dcr_props#6| state))
(declare-fun |dcr_props#7| (|dcr_props_s|) Bool) ; \device_control_write_enable
; yosys-smt2-input device_control_write_enable 1
; yosys-smt2-wire device_control_write_enable 1
; yosys-smt2-witness {"offset": 0, "path": ["\\device_control_write_enable"], "smtname": "device_control_write_enable", "smtoffset": 0, "type": "input", "width": 1}
(define-fun |dcr_props_n device_control_write_enable| ((state |dcr_props_s|)) Bool (|dcr_props#7| state))
(declare-fun |dcr_props#8| (|dcr_props_s|) (_ BitVec 8)) ; \device_control_data
; yosys-smt2-input device_control_data 8
; yosys-smt2-wire device_control_data 8
; yosys-smt2-witness {"offset": 0, "path": ["\\device_control_data"], "smtname": "device_control_data", "smtoffset": 0, "type": "input", "width": 8}
(define-fun |dcr_props_n device_control_data| ((state |dcr_props_s|)) (_ BitVec 8) (|dcr_props#8| state))
(declare-fun |dcr_props#9| (|dcr_props_s|) Bool) ; \clk
; yosys-smt2-input clk 1
; yosys-smt2-wire clk 1
; yosys-smt2-clock clk posedge
; yosys-smt2-witness {"offset": 0, "path": ["\\clk"], "smtname": "clk", "smtoffset": 0, "type": "posedge", "width": 1}
; yosys-smt2-witness {"offset": 0, "path": ["\\clk"], "smtname": "clk", "smtoffset": 0, "type": "input", "width": 1}
(define-fun |dcr_props_n clk| ((state |dcr_props_s|)) Bool (|dcr_props#9| state))
; yosys-smt2-witness {"offset": 0, "path": ["$auto$async2sync.cc:110:execute$55"], "smtname": 10, "smtoffset": 0, "type": "reg", "width": 1}
(declare-fun |dcr_props#10| (|dcr_props_s|) (_ BitVec 1)) ; $auto$async2sync.cc:110:execute$55
; yosys-smt2-register $auto$async2sync.cc:110:execute$55 1
(define-fun |dcr_props_n $auto$async2sync.cc:110:execute$55| ((state |dcr_props_s|)) Bool (= ((_ extract 0 0) (|dcr_props#10| state)) #b1))
; yosys-smt2-witness {"offset": 0, "path": ["$auto$async2sync.cc:110:execute$49"], "smtname": 11, "smtoffset": 0, "type": "reg", "width": 1}
(declare-fun |dcr_props#11| (|dcr_props_s|) (_ BitVec 1)) ; $auto$async2sync.cc:110:execute$49
; yosys-smt2-register $auto$async2sync.cc:110:execute$49 1
(define-fun |dcr_props_n $auto$async2sync.cc:110:execute$49| ((state |dcr_props_s|)) Bool (= ((_ extract 0 0) (|dcr_props#11| state)) #b1))
; yosys-smt2-witness {"offset": 0, "path": ["$auto$async2sync.cc:110:execute$43"], "smtname": 12, "smtoffset": 0, "type": "reg", "width": 1}
(declare-fun |dcr_props#12| (|dcr_props_s|) (_ BitVec 1)) ; $auto$async2sync.cc:110:execute$43
; yosys-smt2-register $auto$async2sync.cc:110:execute$43 1
(define-fun |dcr_props_n $auto$async2sync.cc:110:execute$43| ((state |dcr_props_s|)) Bool (= ((_ extract 0 0) (|dcr_props#12| state)) #b1))
; yosys-smt2-witness {"offset": 0, "path": ["$auto$async2sync.cc:101:execute$51"], "smtname": 13, "smtoffset": 0, "type": "reg", "width": 1}
(declare-fun |dcr_props#13| (|dcr_props_s|) (_ BitVec 1)) ; $auto$async2sync.cc:101:execute$51
; yosys-smt2-register $auto$async2sync.cc:101:execute$51 1
(define-fun |dcr_props_n $auto$async2sync.cc:101:execute$51| ((state |dcr_props_s|)) Bool (= ((_ extract 0 0) (|dcr_props#13| state)) #b1))
; yosys-smt2-witness {"offset": 0, "path": ["$auto$async2sync.cc:101:execute$45"], "smtname": 14, "smtoffset": 0, "type": "reg", "width": 1}
(declare-fun |dcr_props#14| (|dcr_props_s|) (_ BitVec 1)) ; $auto$async2sync.cc:101:execute$45
; yosys-smt2-register $auto$async2sync.cc:101:execute$45 1
(define-fun |dcr_props_n $auto$async2sync.cc:101:execute$45| ((state |dcr_props_s|)) Bool (= ((_ extract 0 0) (|dcr_props#14| state)) #b1))
; yosys-smt2-witness {"offset": 0, "path": ["$auto$async2sync.cc:101:execute$39"], "smtname": 15, "smtoffset": 0, "type": "reg", "width": 1}
(declare-fun |dcr_props#15| (|dcr_props_s|) (_ BitVec 1)) ; $auto$async2sync.cc:101:execute$39
; yosys-smt2-register $auto$async2sync.cc:101:execute$39 1
(define-fun |dcr_props_n $auto$async2sync.cc:101:execute$39| ((state |dcr_props_s|)) Bool (= ((_ extract 0 0) (|dcr_props#15| state)) #b1))
(define-fun |dcr_props#16| ((state |dcr_props_s|)) (_ BitVec 1) (bvnot (ite (|dcr_props#9| state) #b1 #b0))) ; $auto$rtlil.cc:2739:Not$79
; yosys-smt2-assume 0 $auto$formalff.cc:758:execute$80
(define-fun |dcr_props_u 0| ((state |dcr_props_s|)) Bool (or (= ((_ extract 0 0) (|dcr_props#16| state)) #b1) (not true))) ; $auto$formalff.cc:758:execute$80
; yosys-smt2-assert 0 _witness_.check_assert_dcr_props_sv_66_12 dcr_props.sv:66.17-66.59
(define-fun |dcr_props_a 0| ((state |dcr_props_s|)) Bool (or (= ((_ extract 0 0) (|dcr_props#12| state)) #b1) (not (= ((_ extract 0 0) (|dcr_props#15| state)) #b1)))) ; _witness_.check_assert_dcr_props_sv_66_12
; yosys-smt2-assert 1 _witness_.check_assert_dcr_props_sv_61_7 dcr_props.sv:61.17-61.51
(define-fun |dcr_props_a 1| ((state |dcr_props_s|)) Bool (or (= ((_ extract 0 0) (|dcr_props#11| state)) #b1) (not (= ((_ extract 0 0) (|dcr_props#14| state)) #b1)))) ; _witness_.check_assert_dcr_props_sv_61_7
; yosys-smt2-assert 2 _witness_.check_assert_dcr_props_sv_56_3 dcr_props.sv:56.17-56.47
(define-fun |dcr_props_a 2| ((state |dcr_props_s|)) Bool (or (= ((_ extract 0 0) (|dcr_props#10| state)) #b1) (not (= ((_ extract 0 0) (|dcr_props#13| state)) #b1)))) ; _witness_.check_assert_dcr_props_sv_56_3
(define-fun |dcr_props#17| ((state |dcr_props_s|)) Bool (not (or  (= ((_ extract 0 0) (|dcr_props#5| state)) #b1) false))) ; $logic_not$dcr_props.sv:60$5_Y
(define-fun |dcr_props#18| ((state |dcr_props_s|)) Bool (not (or  (= ((_ extract 0 0) (|dcr_props#2| state)) #b1) false))) ; $logic_not$dcr_props.sv:65$10_Y
(define-fun |dcr_props#19| ((state |dcr_props_s|)) Bool (and (or  (|dcr_props#17| state) false) (or  (|dcr_props#18| state) false))) ; $logic_and$dcr_props.sv:65$11_Y
(define-fun |dcr_props#20| ((state |dcr_props_s|)) (_ BitVec 1) (ite (|dcr_props#19| state) #b1 #b0)) ; $procmux$21_Y
(define-fun |dcr_props#21| ((state |dcr_props_s|)) (_ BitVec 1) (ite (= ((_ extract 0 0) (|dcr_props#3| state)) #b1) (|dcr_props#20| state) #b0)) ; $assert$dcr_props.sv:66$12_EN
(define-fun |dcr_props#22| ((state |dcr_props_s|)) Bool (and (or  (|dcr_props#17| state) false) (or  (= ((_ extract 0 0) (|dcr_props#2| state)) #b1) false))) ; $logic_and$dcr_props.sv:60$6_Y
(define-fun |dcr_props#23| ((state |dcr_props_s|)) (_ BitVec 1) (ite (|dcr_props#22| state) #b1 #b0)) ; $procmux$25_Y
(define-fun |dcr_props#24| ((state |dcr_props_s|)) (_ BitVec 1) (ite (= ((_ extract 0 0) (|dcr_props#3| state)) #b1) (|dcr_props#23| state) #b0)) ; $assert$dcr_props.sv:61$7_EN
(define-fun |dcr_props#25| ((state |dcr_props_s|)) (_ BitVec 1) (ite (= ((_ extract 0 0) (|dcr_props#5| state)) #b1) #b1 #b0)) ; $procmux$29_Y
(define-fun |dcr_props#26| ((state |dcr_props_s|)) (_ BitVec 1) (ite (= ((_ extract 0 0) (|dcr_props#3| state)) #b1) (|dcr_props#25| state) #b0)) ; $assert$dcr_props.sv:56$3_EN
(define-fun |dcr_props#27| ((state |dcr_props_s|)) Bool (= (|dcr_props#0| state) (|dcr_props#4| state))) ; $eq$dcr_props.sv:66$13_Y
(define-fun |dcr_props#28| ((state |dcr_props_s|)) Bool (= (|dcr_props#0| state) (|dcr_props#6| state))) ; $eq$dcr_props.sv:61$8_Y
(define-fun |dcr_props#29| ((state |dcr_props_s|)) Bool (not (or  (= ((_ extract 0 0) (|dcr_props#0| state)) #b1) (= ((_ extract 1 1) (|dcr_props#0| state)) #b1) (= ((_ extract 2 2) (|dcr_props#0| state)) #b1) (= ((_ extract 3 3) (|dcr_props#0| state)) #b1) (= ((_ extract 4 4) (|dcr_props#0| state)) #b1) (= ((_ extract 5 5) (|dcr_props#0| state)) #b1) (= ((_ extract 6 6) (|dcr_props#0| state)) #b1) (= ((_ extract 7 7) (|dcr_props#0| state)) #b1)))) ; $eq$dcr_props.sv:56$4_Y
(define-fun |dcr_props_a| ((state |dcr_props_s|)) Bool (and
  (|dcr_props_a 0| state)
  (|dcr_props_a 1| state)
  (|dcr_props_a 2| state)
))
(define-fun |dcr_props_u| ((state |dcr_props_s|)) Bool 
  (|dcr_props_u 0| state)
)
(define-fun |dcr_props_i| ((state |dcr_props_s|)) Bool (and
  (= (= ((_ extract 0 0) (|dcr_props#2| state)) #b1) false) ; past_we
  (= (= ((_ extract 0 0) (|dcr_props#3| state)) #b1) false) ; past_valid
  (= (|dcr_props#4| state) #b00000000) ; past_thread_count
  (= (= ((_ extract 0 0) (|dcr_props#5| state)) #b1) true) ; past_reset
  (= (|dcr_props#6| state) #b00000000) ; past_data
  (= (= ((_ extract 0 0) (|dcr_props#10| state)) #b1) true) ; $auto$async2sync.cc:110:execute$55
  (= (= ((_ extract 0 0) (|dcr_props#11| state)) #b1) true) ; $auto$async2sync.cc:110:execute$49
  (= (= ((_ extract 0 0) (|dcr_props#12| state)) #b1) true) ; $auto$async2sync.cc:110:execute$43
  (= (= ((_ extract 0 0) (|dcr_props#13| state)) #b1) false) ; $auto$async2sync.cc:101:execute$51
  (= (= ((_ extract 0 0) (|dcr_props#14| state)) #b1) false) ; $auto$async2sync.cc:101:execute$45
  (= (= ((_ extract 0 0) (|dcr_props#15| state)) #b1) false) ; $auto$async2sync.cc:101:execute$39
))
(define-fun |dcr_props_h| ((state |dcr_props_s|)) Bool true)
(define-fun |dcr_props_t| ((state |dcr_props_s|) (next_state |dcr_props_s|)) Bool (and
  (= (|dcr_props#21| state) (|dcr_props#15| next_state)) ; $auto$async2sync.cc:104:execute$41 $auto$async2sync.cc:101:execute$39
  (= (|dcr_props#24| state) (|dcr_props#14| next_state)) ; $auto$async2sync.cc:104:execute$47 $auto$async2sync.cc:101:execute$45
  (= (|dcr_props#26| state) (|dcr_props#13| next_state)) ; $auto$async2sync.cc:104:execute$53 $auto$async2sync.cc:101:execute$51
  (= (ite (|dcr_props#27| state) #b1 #b0) (|dcr_props#12| next_state)) ; $auto$async2sync.cc:112:execute$44 $auto$async2sync.cc:110:execute$43
  (= (ite (|dcr_props#28| state) #b1 #b0) (|dcr_props#11| next_state)) ; $auto$async2sync.cc:112:execute$50 $auto$async2sync.cc:110:execute$49
  (= (ite (|dcr_props#29| state) #b1 #b0) (|dcr_props#10| next_state)) ; $auto$async2sync.cc:112:execute$56 $auto$async2sync.cc:110:execute$55
  (= (|dcr_props#8| state) (|dcr_props#6| next_state)) ; $procdff$37 \past_data
  (= (ite (|dcr_props#1| state) #b1 #b0) (|dcr_props#5| next_state)) ; $procdff$35 \past_reset
  (= (|dcr_props#0| state) (|dcr_props#4| next_state)) ; $procdff$38 \past_thread_count
  (= #b1 (|dcr_props#3| next_state)) ; $procdff$34 \past_valid
  (= (ite (|dcr_props#7| state) #b1 #b0) (|dcr_props#2| next_state)) ; $procdff$36 \past_we
)) ; end of module dcr_props
; yosys-smt2-module dcr_formal_top
(declare-sort |dcr_formal_top_s| 0)
(declare-fun |dcr_formal_top_is| (|dcr_formal_top_s|) Bool)
; yosys-smt2-cell dcr u_dcr
; yosys-smt2-witness {"path": ["\\u_dcr"], "smtname": "u_dcr", "type": "cell"}
(declare-fun |dcr_formal_top#0| (|dcr_formal_top_s|) (_ BitVec 8)) ; \thread_count
(declare-fun |dcr_formal_top_h u_dcr| (|dcr_formal_top_s|) |dcr_s|)
; yosys-smt2-wire thread_count 8
(define-fun |dcr_formal_top_n thread_count| ((state |dcr_formal_top_s|)) (_ BitVec 8) (|dcr_formal_top#0| state))
(declare-fun |dcr_formal_top#1| (|dcr_formal_top_s|) Bool) ; \reset
; yosys-smt2-input reset 1
; yosys-smt2-wire reset 1
; yosys-smt2-witness {"offset": 0, "path": ["\\reset"], "smtname": "reset", "smtoffset": 0, "type": "input", "width": 1}
(define-fun |dcr_formal_top_n reset| ((state |dcr_formal_top_s|)) Bool (|dcr_formal_top#1| state))
(declare-fun |dcr_formal_top#2| (|dcr_formal_top_s|) Bool) ; \device_control_write_enable
; yosys-smt2-input device_control_write_enable 1
; yosys-smt2-wire device_control_write_enable 1
; yosys-smt2-witness {"offset": 0, "path": ["\\device_control_write_enable"], "smtname": "device_control_write_enable", "smtoffset": 0, "type": "input", "width": 1}
(define-fun |dcr_formal_top_n device_control_write_enable| ((state |dcr_formal_top_s|)) Bool (|dcr_formal_top#2| state))
(declare-fun |dcr_formal_top#3| (|dcr_formal_top_s|) (_ BitVec 8)) ; \device_control_data
; yosys-smt2-input device_control_data 8
; yosys-smt2-wire device_control_data 8
; yosys-smt2-witness {"offset": 0, "path": ["\\device_control_data"], "smtname": "device_control_data", "smtoffset": 0, "type": "input", "width": 8}
(define-fun |dcr_formal_top_n device_control_data| ((state |dcr_formal_top_s|)) (_ BitVec 8) (|dcr_formal_top#3| state))
(declare-fun |dcr_formal_top#4| (|dcr_formal_top_s|) Bool) ; \clk
; yosys-smt2-input clk 1
; yosys-smt2-wire clk 1
; yosys-smt2-clock clk posedge
; yosys-smt2-witness {"offset": 0, "path": ["\\clk"], "smtname": "clk", "smtoffset": 0, "type": "posedge", "width": 1}
; yosys-smt2-witness {"offset": 0, "path": ["\\clk"], "smtname": "clk", "smtoffset": 0, "type": "input", "width": 1}
(define-fun |dcr_formal_top_n clk| ((state |dcr_formal_top_s|)) Bool (|dcr_formal_top#4| state))
(define-fun |dcr_formal_top#5| ((state |dcr_formal_top_s|)) (_ BitVec 1) (bvnot (ite (|dcr_formal_top#4| state) #b1 #b0))) ; $auto$rtlil.cc:2739:Not$82
; yosys-smt2-assume 0 $auto$formalff.cc:758:execute$83
(define-fun |dcr_formal_top_u 0| ((state |dcr_formal_top_s|)) Bool (or (= ((_ extract 0 0) (|dcr_formal_top#5| state)) #b1) (not true))) ; $auto$formalff.cc:758:execute$83
; yosys-smt2-cell dcr_props u_props
; yosys-smt2-witness {"path": ["\\u_props"], "smtname": "u_props", "type": "cell"}
(declare-fun |dcr_formal_top_h u_props| (|dcr_formal_top_s|) |dcr_props_s|)
(define-fun |dcr_formal_top_a| ((state |dcr_formal_top_s|)) Bool (and
  (|dcr_a| (|dcr_formal_top_h u_dcr| state))
  (|dcr_props_a| (|dcr_formal_top_h u_props| state))
))
(define-fun |dcr_formal_top_u| ((state |dcr_formal_top_s|)) Bool (and
  (|dcr_formal_top_u 0| state)
  (|dcr_u| (|dcr_formal_top_h u_dcr| state))
  (|dcr_props_u| (|dcr_formal_top_h u_props| state))
))
(define-fun |dcr_formal_top_i| ((state |dcr_formal_top_s|)) Bool (and
  (|dcr_i| (|dcr_formal_top_h u_dcr| state))
  (|dcr_props_i| (|dcr_formal_top_h u_props| state))
))
(define-fun |dcr_formal_top_h| ((state |dcr_formal_top_s|)) Bool (and
  (= (|dcr_formal_top_is| state) (|dcr_is| (|dcr_formal_top_h u_dcr| state)))
  (= (|dcr_formal_top#0| state) (|dcr_n thread_count| (|dcr_formal_top_h u_dcr| state))) ; dcr.thread_count
  (= (|dcr_formal_top#1| state) (|dcr_n reset| (|dcr_formal_top_h u_dcr| state))) ; dcr.reset
  (= (|dcr_formal_top#2| state) (|dcr_n device_control_write_enable| (|dcr_formal_top_h u_dcr| state))) ; dcr.device_control_write_enable
  (= (|dcr_formal_top#3| state) (|dcr_n device_control_data| (|dcr_formal_top_h u_dcr| state))) ; dcr.device_control_data
  (= (|dcr_formal_top#4| state) (|dcr_n clk| (|dcr_formal_top_h u_dcr| state))) ; dcr.clk
  (= (|dcr_formal_top_is| state) (|dcr_props_is| (|dcr_formal_top_h u_props| state)))
  (= (|dcr_formal_top#0| state) (|dcr_props_n thread_count| (|dcr_formal_top_h u_props| state))) ; dcr_props.thread_count
  (= (|dcr_formal_top#1| state) (|dcr_props_n reset| (|dcr_formal_top_h u_props| state))) ; dcr_props.reset
  (= (|dcr_formal_top#2| state) (|dcr_props_n device_control_write_enable| (|dcr_formal_top_h u_props| state))) ; dcr_props.device_control_write_enable
  (= (|dcr_formal_top#3| state) (|dcr_props_n device_control_data| (|dcr_formal_top_h u_props| state))) ; dcr_props.device_control_data
  (= (|dcr_formal_top#4| state) (|dcr_props_n clk| (|dcr_formal_top_h u_props| state))) ; dcr_props.clk
  (|dcr_h| (|dcr_formal_top_h u_dcr| state))
  (|dcr_props_h| (|dcr_formal_top_h u_props| state))
))
(define-fun |dcr_formal_top_t| ((state |dcr_formal_top_s|) (next_state |dcr_formal_top_s|)) Bool (and
  (|dcr_t| (|dcr_formal_top_h u_dcr| state) (|dcr_formal_top_h u_dcr| next_state))
  (|dcr_props_t| (|dcr_formal_top_h u_props| state) (|dcr_formal_top_h u_props| next_state))
)) ; end of module dcr_formal_top
; yosys-smt2-topmod dcr_formal_top
; end of yosys output
